; benchmark generated from python API
(set-info :status unknown)
(declare-fun x_epoch () Int)
(declare-fun x_plus_epoch () Int)
(declare-fun x_plus_month () Int)
(declare-fun x_plus_year () Int)
(declare-fun x_plus_day () Int)
(declare-fun x_plus_1_epoch () Int)
(assert
 (>= x_epoch (- 36584)))
(assert
 (<= x_epoch 36829))
(assert
 (>= x_epoch 8341))
(assert
 (<= x_epoch 8705))
(assert
 (>= x_plus_epoch (- 36584)))
(assert
 (<= x_plus_epoch 36829))
(assert
 (let (($x1317 (= x_plus_month 11)))
 (let (($x989 (= x_plus_month 9)))
 (let (($x2201 (= x_plus_month 6)))
 (let (($x1257 (= x_plus_month 4)))
 (let ((?x2493 (ite (or $x1257 $x2201 $x989 $x1317) 30 31)))
 (let (($x3391 (= (mod x_plus_year 400) 0)))
 (let (($x2707 (= (mod x_plus_year 4) 0)))
 (let (($x3449 (or (and $x2707 (and (distinct (mod x_plus_year 100) 0) true)) $x3391)))
 (let (($x1128 (= x_plus_month 2)))
 (let (($x1192 (>= x_plus_day 1)))
 (let (($x1056 (<= x_plus_month 12)))
 (let (($x1029 (>= x_plus_month 1)))
 (let (($x3285 (<= x_plus_year 2100)))
 (let (($x583 (>= x_plus_year 1900)))
 (and $x583 $x3285 $x1029 $x1056 $x1192 (<= x_plus_day (ite $x1128 (ite $x3449 29 28) ?x2493))))))))))))))))))
(assert
 (let (($x3391 (= (mod x_plus_year 400) 0)))
 (let (($x2707 (= (mod x_plus_year 4) 0)))
 (let (($x3449 (or (and $x2707 (and (distinct (mod x_plus_year 100) 0) true)) $x3391)))
 (let ((?x2290 (ite (= 2 x_plus_month) (ite $x3449 31 31) (ite (= 1 x_plus_month) (ite $x3449 0 0) 0))))
 (let ((?x2848 (ite (= 4 x_plus_month) (ite $x3449 91 90) (ite (= 3 x_plus_month) (ite $x3449 60 59) ?x2290))))
 (let ((?x2303 (ite (= 6 x_plus_month) (ite $x3449 152 151) (ite (= 5 x_plus_month) (ite $x3449 121 120) ?x2848))))
 (let ((?x3164 (ite (= 8 x_plus_month) (ite $x3449 213 212) (ite (= 7 x_plus_month) (ite $x3449 182 181) ?x2303))))
 (let ((?x1418 (ite (= 10 x_plus_month) (ite $x3449 274 273) (ite (= 9 x_plus_month) (ite $x3449 244 243) ?x3164))))
 (let ((?x1763 (ite (= 12 x_plus_month) (ite $x3449 335 334) (ite (= 11 x_plus_month) (ite $x3449 305 304) ?x1418))))
 (let ((?x1973 (+ (* 365 (- x_plus_year 1)) (div (- x_plus_year 1) 4))))
 (let ((?x3104 (+ (- ?x1973 (div (- x_plus_year 1) 100)) (div (- x_plus_year 1) 400))))
 (= x_plus_epoch (- (+ (+ ?x3104 ?x1763) (- x_plus_day 1)) 730179))))))))))))))
(assert
 (let ((?x638 (+ x_epoch 730179)))
 (let ((?x468 (mod ?x638 146097)))
 (let ((?x413 (div ?x468 36524)))
 (let ((?x311 (ite (<= 4 ?x413) 3 ?x413)))
 (let ((?x664 (- ?x468 (* ?x311 36524))))
 (let ((?x2143 (mod ?x664 1461)))
 (let ((?x2906 (div ?x2143 365)))
 (let ((?x1133 (ite (<= 4 ?x2906) 3 ?x2906)))
 (let ((?x2783 (+ (+ (* (div ?x638 146097) 400) (* ?x311 100)) (* (div ?x664 1461) 4))))
 (let ((?x3207 (+ (+ ?x2783 ?x1133) 1)))
 (let (($x1815 (or (and (= (mod ?x3207 4) 0) (and (distinct (mod ?x3207 100) 0) true)) (= (mod ?x3207 400) 0))))
 (let ((?x2592 (- ?x2143 (* ?x1133 365))))
 (let ((?x859 (ite $x1815 31 31)))
 (let (($x483 (>= ?x2592 ?x859)))
 (let ((?x2766 (ite $x483 (+ (- ?x2592 ?x859) 1) (+ (- ?x2592 (ite $x1815 0 0)) 1))))
 (let ((?x3066 (ite $x1815 60 59)))
 (let (($x466 (>= ?x2592 ?x3066)))
 (let ((?x3014 (ite $x1815 91 90)))
 (let (($x708 (>= ?x2592 ?x3014)))
 (let ((?x224 (ite $x708 (+ (- ?x2592 ?x3014) 1) (ite $x466 (+ (- ?x2592 ?x3066) 1) ?x2766))))
 (let ((?x1820 (ite $x1815 121 120)))
 (let (($x1341 (>= ?x2592 ?x1820)))
 (let ((?x673 (ite $x1815 152 151)))
 (let (($x211 (>= ?x2592 ?x673)))
 (let ((?x2239 (ite $x211 (+ (- ?x2592 ?x673) 1) (ite $x1341 (+ (- ?x2592 ?x1820) 1) ?x224))))
 (let ((?x1178 (ite $x1815 182 181)))
 (let (($x788 (>= ?x2592 ?x1178)))
 (let ((?x679 (ite $x1815 213 212)))
 (let (($x577 (>= ?x2592 ?x679)))
 (let ((?x2109 (ite $x577 (+ (- ?x2592 ?x679) 1) (ite $x788 (+ (- ?x2592 ?x1178) 1) ?x2239))))
 (let ((?x604 (ite $x1815 244 243)))
 (let (($x1589 (>= ?x2592 ?x604)))
 (let ((?x2532 (ite $x1815 274 273)))
 (let (($x325 (>= ?x2592 ?x2532)))
 (let ((?x235 (ite $x325 (+ (- ?x2592 ?x2532) 1) (ite $x1589 (+ (- ?x2592 ?x604) 1) ?x2109))))
 (let ((?x248 (ite $x1815 305 304)))
 (let (($x1853 (>= ?x2592 ?x248)))
 (let ((?x318 (ite $x1815 335 334)))
 (let (($x3178 (>= ?x2592 ?x318)))
 (let ((?x824 (ite $x3178 (+ (- ?x2592 ?x318) 1) (ite $x1853 (+ (- ?x2592 ?x248) 1) ?x235))))
 (let ((?x1671 (* 0 12)))
 (let ((?x3577 (+ ?x1671 2)))
 (let ((?x362 (ite $x1341 5 (ite $x708 4 (ite $x466 3 (ite $x483 2 1))))))
 (let ((?x610 (ite $x1589 9 (ite $x577 8 (ite $x788 7 (ite $x211 6 ?x362))))))
 (let ((?x2069 (ite $x3178 12 (ite $x1853 11 (ite $x325 10 ?x610)))))
 (let ((?x2415 (+ ?x2069 ?x3577)))
 (let ((?x3221 (- ?x2415 1)))
 (let ((?x2540 (+ (mod ?x3221 12) 1)))
 (let ((?x2642 (ite (or (= ?x2540 4) (= ?x2540 6) (= ?x2540 9) (= ?x2540 11)) 30 31)))
 (let (($x1830 (and (= (mod (+ ?x3207 (+ 0 (div ?x3221 12))) 4) 0) (and (distinct (mod (+ ?x3207 (+ 0 (div ?x3221 12))) 100) 0) true))))
 (let (($x1516 (or $x1830 (= (mod (+ ?x3207 (+ 0 (div ?x3221 12))) 400) 0))))
 (let ((?x2036 (ite (= ?x2540 2) (ite $x1516 29 28) ?x2642)))
 (let (($x312 (> 1 ?x824)))
 (let ((?x1290 (ite $x312 1 (ite (> ?x824 ?x2036) ?x2036 ?x824))))
 (let ((?x2099 (ite (> 1 ?x1290) 1 (ite (> ?x1290 ?x2036) ?x2036 ?x1290))))
 (let ((?x1296 (ite (= 2 ?x2540) (ite $x1516 31 31) (ite (= 1 ?x2540) (ite $x1516 0 0) 0))))
 (let ((?x2481 (ite (= 4 ?x2540) (ite $x1516 91 90) (ite (= 3 ?x2540) (ite $x1516 60 59) ?x1296))))
 (let ((?x1345 (ite (= 6 ?x2540) (ite $x1516 152 151) (ite (= 5 ?x2540) (ite $x1516 121 120) ?x2481))))
 (let ((?x2001 (ite (= 8 ?x2540) (ite $x1516 213 212) (ite (= 7 ?x2540) (ite $x1516 182 181) ?x1345))))
 (let ((?x3135 (ite (= 10 ?x2540) (ite $x1516 274 273) (ite (= 9 ?x2540) (ite $x1516 244 243) ?x2001))))
 (let ((?x1185 (ite (= 12 ?x2540) (ite $x1516 335 334) (ite (= 11 ?x2540) (ite $x1516 305 304) ?x3135))))
 (let ((?x2881 (+ (* 365 (- (+ ?x3207 (+ 0 (div ?x3221 12))) 1)) (div (- (+ ?x3207 (+ 0 (div ?x3221 12))) 1) 4))))
 (let ((?x2243 (+ (- ?x2881 (div (- (+ ?x3207 (+ 0 (div ?x3221 12))) 1) 100)) (div (- (+ ?x3207 (+ 0 (div ?x3221 12))) 1) 400))))
 (let ((?x3770 (+ (+ (- (+ (+ ?x2243 ?x1185) (- ?x2099 1)) 730179) 0) 730179)))
 (let ((?x3679 (mod ?x3770 146097)))
 (let ((?x3680 (div ?x3679 36524)))
 (let ((?x3507 (ite (<= 4 ?x3680) 3 ?x3680)))
 (let ((?x626 (- ?x3679 (* ?x3507 36524))))
 (let ((?x449 (mod ?x626 1461)))
 (let ((?x3544 (div ?x449 365)))
 (let ((?x902 (ite (<= 4 ?x3544) 3 ?x3544)))
 (let ((?x3520 (+ (+ (* (div ?x3770 146097) 400) (* ?x3507 100)) (* (div ?x626 1461) 4))))
 (let ((?x2138 (+ (+ ?x3520 ?x902) 1)))
 (let ((?x872 (+ 0 (div ?x3221 12))))
 (let ((?x1423 (+ ?x3207 ?x872)))
 (let (($x3530 (= 0 0)))
 (let ((?x3523 (ite $x3530 ?x1423 ?x2138)))
 (= x_plus_year ?x3523)))))))))))))))))))))))))))))))))))))))))))))))))))))))))))))))))))))))))))))))
(assert
 (let ((?x638 (+ x_epoch 730179)))
 (let ((?x468 (mod ?x638 146097)))
 (let ((?x413 (div ?x468 36524)))
 (let ((?x311 (ite (<= 4 ?x413) 3 ?x413)))
 (let ((?x664 (- ?x468 (* ?x311 36524))))
 (let ((?x2143 (mod ?x664 1461)))
 (let ((?x2906 (div ?x2143 365)))
 (let ((?x1133 (ite (<= 4 ?x2906) 3 ?x2906)))
 (let ((?x2783 (+ (+ (* (div ?x638 146097) 400) (* ?x311 100)) (* (div ?x664 1461) 4))))
 (let ((?x3207 (+ (+ ?x2783 ?x1133) 1)))
 (let (($x1815 (or (and (= (mod ?x3207 4) 0) (and (distinct (mod ?x3207 100) 0) true)) (= (mod ?x3207 400) 0))))
 (let ((?x2592 (- ?x2143 (* ?x1133 365))))
 (let ((?x859 (ite $x1815 31 31)))
 (let (($x483 (>= ?x2592 ?x859)))
 (let ((?x2766 (ite $x483 (+ (- ?x2592 ?x859) 1) (+ (- ?x2592 (ite $x1815 0 0)) 1))))
 (let ((?x3066 (ite $x1815 60 59)))
 (let (($x466 (>= ?x2592 ?x3066)))
 (let ((?x3014 (ite $x1815 91 90)))
 (let (($x708 (>= ?x2592 ?x3014)))
 (let ((?x224 (ite $x708 (+ (- ?x2592 ?x3014) 1) (ite $x466 (+ (- ?x2592 ?x3066) 1) ?x2766))))
 (let ((?x1820 (ite $x1815 121 120)))
 (let (($x1341 (>= ?x2592 ?x1820)))
 (let ((?x673 (ite $x1815 152 151)))
 (let (($x211 (>= ?x2592 ?x673)))
 (let ((?x2239 (ite $x211 (+ (- ?x2592 ?x673) 1) (ite $x1341 (+ (- ?x2592 ?x1820) 1) ?x224))))
 (let ((?x1178 (ite $x1815 182 181)))
 (let (($x788 (>= ?x2592 ?x1178)))
 (let ((?x679 (ite $x1815 213 212)))
 (let (($x577 (>= ?x2592 ?x679)))
 (let ((?x2109 (ite $x577 (+ (- ?x2592 ?x679) 1) (ite $x788 (+ (- ?x2592 ?x1178) 1) ?x2239))))
 (let ((?x604 (ite $x1815 244 243)))
 (let (($x1589 (>= ?x2592 ?x604)))
 (let ((?x2532 (ite $x1815 274 273)))
 (let (($x325 (>= ?x2592 ?x2532)))
 (let ((?x235 (ite $x325 (+ (- ?x2592 ?x2532) 1) (ite $x1589 (+ (- ?x2592 ?x604) 1) ?x2109))))
 (let ((?x248 (ite $x1815 305 304)))
 (let (($x1853 (>= ?x2592 ?x248)))
 (let ((?x318 (ite $x1815 335 334)))
 (let (($x3178 (>= ?x2592 ?x318)))
 (let ((?x824 (ite $x3178 (+ (- ?x2592 ?x318) 1) (ite $x1853 (+ (- ?x2592 ?x248) 1) ?x235))))
 (let ((?x1671 (* 0 12)))
 (let ((?x3577 (+ ?x1671 2)))
 (let ((?x362 (ite $x1341 5 (ite $x708 4 (ite $x466 3 (ite $x483 2 1))))))
 (let ((?x610 (ite $x1589 9 (ite $x577 8 (ite $x788 7 (ite $x211 6 ?x362))))))
 (let ((?x2069 (ite $x3178 12 (ite $x1853 11 (ite $x325 10 ?x610)))))
 (let ((?x2415 (+ ?x2069 ?x3577)))
 (let ((?x3221 (- ?x2415 1)))
 (let ((?x2540 (+ (mod ?x3221 12) 1)))
 (let ((?x2642 (ite (or (= ?x2540 4) (= ?x2540 6) (= ?x2540 9) (= ?x2540 11)) 30 31)))
 (let (($x1830 (and (= (mod (+ ?x3207 (+ 0 (div ?x3221 12))) 4) 0) (and (distinct (mod (+ ?x3207 (+ 0 (div ?x3221 12))) 100) 0) true))))
 (let (($x1516 (or $x1830 (= (mod (+ ?x3207 (+ 0 (div ?x3221 12))) 400) 0))))
 (let ((?x2036 (ite (= ?x2540 2) (ite $x1516 29 28) ?x2642)))
 (let (($x312 (> 1 ?x824)))
 (let ((?x1290 (ite $x312 1 (ite (> ?x824 ?x2036) ?x2036 ?x824))))
 (let ((?x2099 (ite (> 1 ?x1290) 1 (ite (> ?x1290 ?x2036) ?x2036 ?x1290))))
 (let ((?x1296 (ite (= 2 ?x2540) (ite $x1516 31 31) (ite (= 1 ?x2540) (ite $x1516 0 0) 0))))
 (let ((?x2481 (ite (= 4 ?x2540) (ite $x1516 91 90) (ite (= 3 ?x2540) (ite $x1516 60 59) ?x1296))))
 (let ((?x1345 (ite (= 6 ?x2540) (ite $x1516 152 151) (ite (= 5 ?x2540) (ite $x1516 121 120) ?x2481))))
 (let ((?x2001 (ite (= 8 ?x2540) (ite $x1516 213 212) (ite (= 7 ?x2540) (ite $x1516 182 181) ?x1345))))
 (let ((?x3135 (ite (= 10 ?x2540) (ite $x1516 274 273) (ite (= 9 ?x2540) (ite $x1516 244 243) ?x2001))))
 (let ((?x1185 (ite (= 12 ?x2540) (ite $x1516 335 334) (ite (= 11 ?x2540) (ite $x1516 305 304) ?x3135))))
 (let ((?x2881 (+ (* 365 (- (+ ?x3207 (+ 0 (div ?x3221 12))) 1)) (div (- (+ ?x3207 (+ 0 (div ?x3221 12))) 1) 4))))
 (let ((?x2243 (+ (- ?x2881 (div (- (+ ?x3207 (+ 0 (div ?x3221 12))) 1) 100)) (div (- (+ ?x3207 (+ 0 (div ?x3221 12))) 1) 400))))
 (let ((?x3770 (+ (+ (- (+ (+ ?x2243 ?x1185) (- ?x2099 1)) 730179) 0) 730179)))
 (let ((?x3679 (mod ?x3770 146097)))
 (let ((?x3680 (div ?x3679 36524)))
 (let ((?x3507 (ite (<= 4 ?x3680) 3 ?x3680)))
 (let ((?x626 (- ?x3679 (* ?x3507 36524))))
 (let ((?x449 (mod ?x626 1461)))
 (let ((?x3544 (div ?x449 365)))
 (let ((?x902 (ite (<= 4 ?x3544) 3 ?x3544)))
 (let ((?x3520 (+ (+ (* (div ?x3770 146097) 400) (* ?x3507 100)) (* (div ?x626 1461) 4))))
 (let ((?x2138 (+ (+ ?x3520 ?x902) 1)))
 (let (($x706 (or (and (= (mod ?x2138 4) 0) (and (distinct (mod ?x2138 100) 0) true)) (= (mod ?x2138 400) 0))))
 (let ((?x590 (ite $x706 31 31)))
 (let ((?x1884 (- ?x449 (* ?x902 365))))
 (let (($x549 (>= ?x1884 ?x590)))
 (let ((?x728 (ite $x706 60 59)))
 (let (($x388 (>= ?x1884 ?x728)))
 (let ((?x877 (ite $x706 91 90)))
 (let (($x206 (>= ?x1884 ?x877)))
 (let ((?x257 (ite $x706 121 120)))
 (let (($x333 (>= ?x1884 ?x257)))
 (let ((?x629 (ite $x333 5 (ite $x206 4 (ite $x388 3 (ite $x549 2 1))))))
 (let ((?x782 (ite $x706 152 151)))
 (let (($x309 (>= ?x1884 ?x782)))
 (let ((?x748 (ite $x706 182 181)))
 (let (($x402 (>= ?x1884 ?x748)))
 (let ((?x904 (ite $x706 213 212)))
 (let (($x401 (>= ?x1884 ?x904)))
 (let ((?x945 (ite $x706 244 243)))
 (let (($x641 (>= ?x1884 ?x945)))
 (let ((?x464 (ite $x641 9 (ite $x401 8 (ite $x402 7 (ite $x309 6 ?x629))))))
 (let ((?x400 (ite $x706 274 273)))
 (let (($x3068 (>= ?x1884 ?x400)))
 (let ((?x845 (ite $x706 305 304)))
 (let (($x2459 (>= ?x1884 ?x845)))
 (let ((?x546 (ite $x706 335 334)))
 (let (($x2496 (>= ?x1884 ?x546)))
 (let (($x3530 (= 0 0)))
 (let ((?x1882 (ite $x3530 ?x2540 (ite $x2496 12 (ite $x2459 11 (ite $x3068 10 ?x464))))))
 (= x_plus_month ?x1882)))))))))))))))))))))))))))))))))))))))))))))))))))))))))))))))))))))))))))))))))))))))))))))))))))))))
(assert
 (let ((?x638 (+ x_epoch 730179)))
 (let ((?x468 (mod ?x638 146097)))
 (let ((?x413 (div ?x468 36524)))
 (let ((?x311 (ite (<= 4 ?x413) 3 ?x413)))
 (let ((?x664 (- ?x468 (* ?x311 36524))))
 (let ((?x2143 (mod ?x664 1461)))
 (let ((?x2906 (div ?x2143 365)))
 (let ((?x1133 (ite (<= 4 ?x2906) 3 ?x2906)))
 (let ((?x2783 (+ (+ (* (div ?x638 146097) 400) (* ?x311 100)) (* (div ?x664 1461) 4))))
 (let ((?x3207 (+ (+ ?x2783 ?x1133) 1)))
 (let (($x1815 (or (and (= (mod ?x3207 4) 0) (and (distinct (mod ?x3207 100) 0) true)) (= (mod ?x3207 400) 0))))
 (let ((?x2592 (- ?x2143 (* ?x1133 365))))
 (let ((?x859 (ite $x1815 31 31)))
 (let (($x483 (>= ?x2592 ?x859)))
 (let ((?x2766 (ite $x483 (+ (- ?x2592 ?x859) 1) (+ (- ?x2592 (ite $x1815 0 0)) 1))))
 (let ((?x3066 (ite $x1815 60 59)))
 (let (($x466 (>= ?x2592 ?x3066)))
 (let ((?x3014 (ite $x1815 91 90)))
 (let (($x708 (>= ?x2592 ?x3014)))
 (let ((?x224 (ite $x708 (+ (- ?x2592 ?x3014) 1) (ite $x466 (+ (- ?x2592 ?x3066) 1) ?x2766))))
 (let ((?x1820 (ite $x1815 121 120)))
 (let (($x1341 (>= ?x2592 ?x1820)))
 (let ((?x673 (ite $x1815 152 151)))
 (let (($x211 (>= ?x2592 ?x673)))
 (let ((?x2239 (ite $x211 (+ (- ?x2592 ?x673) 1) (ite $x1341 (+ (- ?x2592 ?x1820) 1) ?x224))))
 (let ((?x1178 (ite $x1815 182 181)))
 (let (($x788 (>= ?x2592 ?x1178)))
 (let ((?x679 (ite $x1815 213 212)))
 (let (($x577 (>= ?x2592 ?x679)))
 (let ((?x2109 (ite $x577 (+ (- ?x2592 ?x679) 1) (ite $x788 (+ (- ?x2592 ?x1178) 1) ?x2239))))
 (let ((?x604 (ite $x1815 244 243)))
 (let (($x1589 (>= ?x2592 ?x604)))
 (let ((?x2532 (ite $x1815 274 273)))
 (let (($x325 (>= ?x2592 ?x2532)))
 (let ((?x235 (ite $x325 (+ (- ?x2592 ?x2532) 1) (ite $x1589 (+ (- ?x2592 ?x604) 1) ?x2109))))
 (let ((?x248 (ite $x1815 305 304)))
 (let (($x1853 (>= ?x2592 ?x248)))
 (let ((?x318 (ite $x1815 335 334)))
 (let (($x3178 (>= ?x2592 ?x318)))
 (let ((?x824 (ite $x3178 (+ (- ?x2592 ?x318) 1) (ite $x1853 (+ (- ?x2592 ?x248) 1) ?x235))))
 (let ((?x1671 (* 0 12)))
 (let ((?x3577 (+ ?x1671 2)))
 (let ((?x362 (ite $x1341 5 (ite $x708 4 (ite $x466 3 (ite $x483 2 1))))))
 (let ((?x610 (ite $x1589 9 (ite $x577 8 (ite $x788 7 (ite $x211 6 ?x362))))))
 (let ((?x2069 (ite $x3178 12 (ite $x1853 11 (ite $x325 10 ?x610)))))
 (let ((?x2415 (+ ?x2069 ?x3577)))
 (let ((?x3221 (- ?x2415 1)))
 (let ((?x2540 (+ (mod ?x3221 12) 1)))
 (let ((?x2642 (ite (or (= ?x2540 4) (= ?x2540 6) (= ?x2540 9) (= ?x2540 11)) 30 31)))
 (let (($x1830 (and (= (mod (+ ?x3207 (+ 0 (div ?x3221 12))) 4) 0) (and (distinct (mod (+ ?x3207 (+ 0 (div ?x3221 12))) 100) 0) true))))
 (let (($x1516 (or $x1830 (= (mod (+ ?x3207 (+ 0 (div ?x3221 12))) 400) 0))))
 (let ((?x2036 (ite (= ?x2540 2) (ite $x1516 29 28) ?x2642)))
 (let (($x312 (> 1 ?x824)))
 (let ((?x1290 (ite $x312 1 (ite (> ?x824 ?x2036) ?x2036 ?x824))))
 (let ((?x2099 (ite (> 1 ?x1290) 1 (ite (> ?x1290 ?x2036) ?x2036 ?x1290))))
 (let ((?x1296 (ite (= 2 ?x2540) (ite $x1516 31 31) (ite (= 1 ?x2540) (ite $x1516 0 0) 0))))
 (let ((?x2481 (ite (= 4 ?x2540) (ite $x1516 91 90) (ite (= 3 ?x2540) (ite $x1516 60 59) ?x1296))))
 (let ((?x1345 (ite (= 6 ?x2540) (ite $x1516 152 151) (ite (= 5 ?x2540) (ite $x1516 121 120) ?x2481))))
 (let ((?x2001 (ite (= 8 ?x2540) (ite $x1516 213 212) (ite (= 7 ?x2540) (ite $x1516 182 181) ?x1345))))
 (let ((?x3135 (ite (= 10 ?x2540) (ite $x1516 274 273) (ite (= 9 ?x2540) (ite $x1516 244 243) ?x2001))))
 (let ((?x1185 (ite (= 12 ?x2540) (ite $x1516 335 334) (ite (= 11 ?x2540) (ite $x1516 305 304) ?x3135))))
 (let ((?x2881 (+ (* 365 (- (+ ?x3207 (+ 0 (div ?x3221 12))) 1)) (div (- (+ ?x3207 (+ 0 (div ?x3221 12))) 1) 4))))
 (let ((?x2243 (+ (- ?x2881 (div (- (+ ?x3207 (+ 0 (div ?x3221 12))) 1) 100)) (div (- (+ ?x3207 (+ 0 (div ?x3221 12))) 1) 400))))
 (let ((?x3770 (+ (+ (- (+ (+ ?x2243 ?x1185) (- ?x2099 1)) 730179) 0) 730179)))
 (let ((?x3679 (mod ?x3770 146097)))
 (let ((?x3680 (div ?x3679 36524)))
 (let ((?x3507 (ite (<= 4 ?x3680) 3 ?x3680)))
 (let ((?x626 (- ?x3679 (* ?x3507 36524))))
 (let ((?x449 (mod ?x626 1461)))
 (let ((?x3544 (div ?x449 365)))
 (let ((?x902 (ite (<= 4 ?x3544) 3 ?x3544)))
 (let ((?x3520 (+ (+ (* (div ?x3770 146097) 400) (* ?x3507 100)) (* (div ?x626 1461) 4))))
 (let ((?x2138 (+ (+ ?x3520 ?x902) 1)))
 (let (($x706 (or (and (= (mod ?x2138 4) 0) (and (distinct (mod ?x2138 100) 0) true)) (= (mod ?x2138 400) 0))))
 (let ((?x1884 (- ?x449 (* ?x902 365))))
 (let ((?x590 (ite $x706 31 31)))
 (let (($x549 (>= ?x1884 ?x590)))
 (let ((?x352 (ite $x549 (+ (- ?x1884 ?x590) 1) (+ (- ?x1884 (ite $x706 0 0)) 1))))
 (let ((?x728 (ite $x706 60 59)))
 (let (($x388 (>= ?x1884 ?x728)))
 (let ((?x877 (ite $x706 91 90)))
 (let (($x206 (>= ?x1884 ?x877)))
 (let ((?x3062 (ite $x206 (+ (- ?x1884 ?x877) 1) (ite $x388 (+ (- ?x1884 ?x728) 1) ?x352))))
 (let ((?x257 (ite $x706 121 120)))
 (let (($x333 (>= ?x1884 ?x257)))
 (let ((?x782 (ite $x706 152 151)))
 (let (($x309 (>= ?x1884 ?x782)))
 (let ((?x723 (ite $x309 (+ (- ?x1884 ?x782) 1) (ite $x333 (+ (- ?x1884 ?x257) 1) ?x3062))))
 (let ((?x748 (ite $x706 182 181)))
 (let (($x402 (>= ?x1884 ?x748)))
 (let ((?x904 (ite $x706 213 212)))
 (let (($x401 (>= ?x1884 ?x904)))
 (let ((?x2812 (ite $x401 (+ (- ?x1884 ?x904) 1) (ite $x402 (+ (- ?x1884 ?x748) 1) ?x723))))
 (let ((?x945 (ite $x706 244 243)))
 (let (($x641 (>= ?x1884 ?x945)))
 (let ((?x400 (ite $x706 274 273)))
 (let (($x3068 (>= ?x1884 ?x400)))
 (let ((?x612 (ite $x3068 (+ (- ?x1884 ?x400) 1) (ite $x641 (+ (- ?x1884 ?x945) 1) ?x2812))))
 (let ((?x845 (ite $x706 305 304)))
 (let (($x2459 (>= ?x1884 ?x845)))
 (let ((?x546 (ite $x706 335 334)))
 (let (($x2496 (>= ?x1884 ?x546)))
 (let ((?x2289 (ite $x2496 (+ (- ?x1884 ?x546) 1) (ite $x2459 (+ (- ?x1884 ?x845) 1) ?x612))))
 (let (($x3530 (= 0 0)))
 (let ((?x3224 (ite $x3530 ?x2099 ?x2289)))
 (= x_plus_day ?x3224)))))))))))))))))))))))))))))))))))))))))))))))))))))))))))))))))))))))))))))))))))))))))))))))))))))))))))
(assert
 (>= x_plus_1_epoch (- 36584)))
(assert
 (<= x_plus_1_epoch 36829))
(assert
 (= x_plus_1_epoch (+ x_epoch 61)))
(assert
 (= x_plus_epoch x_plus_1_epoch))
(check-sat)
